; benchmark generated from python API
(set-info :status unknown)
(declare-fun a3 () Real)
(declare-fun a2 () Real)
(declare-fun a1 () Real)
(assert
 (forall ((x1 Real) (x2 Real) )(let (($x76 (>= (+ (+ (* a1 (^ x1 2.0)) (* a2 (^ x2 2.0))) a3) 0.0)))
 (let (($x77 (<= x2 5.0)))
 (let (($x78 (>= x2 (- 5.0))))
 (let (($x79 (<= x1 5.0)))
 (let (($x80 (>= x1 (- 5.0))))
 (let (($x81 (and $x80 $x79 $x78 $x77)))
 (let (($x90 (and (>= (* (- x1 (/ 1.0 2.0)) (- (/ 7.0 10.0) x1)) 0.0) (>= (* (- x2 (/ 1.0 2.0)) (- (/ 7.0 10.0) x2)) 0.0) $x81)))
 (=> $x90 $x76)))))))))
 )
(assert
 (forall ((x1 Real) (x2 Real) )(let ((?x96 (^ (+ (* (- (/ 3.0 5.0)) (^ x1 2.0)) (* (/ 3.0 10.0) (^ x2 2.0))) 2.0)))
 (let ((?x102 (^ (+ (* (/ 1.0 2.0) (^ x1 3.0)) (* (/ 2.0 5.0) (^ x2 2.0))) 2.0)))
 (let (($x77 (<= x2 5.0)))
 (let (($x78 (>= x2 (- 5.0))))
 (let (($x79 (<= x1 5.0)))
 (let (($x80 (>= x1 (- 5.0))))
 (let (($x81 (and $x80 $x79 $x78 $x77)))
 (let (($x110 (>= (+ (- (- (^ x1 2.0)) (^ x2 2.0)) 1.0) 0.0)))
 (let (($x76 (>= (+ (+ (* a1 (^ x1 2.0)) (* a2 (^ x2 2.0))) a3) 0.0)))
 (=> (and $x76 $x110 $x81) (>= (+ (+ (* a1 ?x102) (* a2 ?x96)) a3) 0.0))))))))))))
 )
(assert
 (forall ((x1 Real) (x2 Real) )(let (($x77 (<= x2 5.0)))
 (let (($x78 (>= x2 (- 5.0))))
 (let (($x79 (<= x1 5.0)))
 (let (($x80 (>= x1 (- 5.0))))
 (let (($x81 (and $x80 $x79 $x78 $x77)))
 (let (($x110 (>= (+ (- (- (^ x1 2.0)) (^ x2 2.0)) 1.0) 0.0)))
 (let (($x76 (>= (+ (+ (* a1 (^ x1 2.0)) (* a2 (^ x2 2.0))) a3) 0.0)))
 (=> (and $x76 (not $x110) $x81) (<= (- (+ (^ x1 2.0) (^ x2 2.0)) (/ 9.0 25.0)) 0.0))))))))))
 )
(check-sat)

